benchmarks_CP/INST_64x64/40/inst64x64_40_90.dzn
S=8;
start=[|
-1,	21,	-1,	34,	-1,	-1,	-1,	60,	16,	-1,	-1,	-1,	54,	-1,	52,	-1,	-1,	-1,	31,	13,	61,	9,	-1,	6,	-1,	-1,	24,	-1,	48,	-1,	-1,	-1,	-1,	18,	-1,	-1,	-1,	12,	-1,	-1,	-1,	43,	-1,	-1,	28,	7,	23,	-1,	-1,	62,	-1,	30,	-1,	20,	-1,	-1,	-1,	5,	-1,	-1,	-1,	56,	-1,	-1|
24,	-1,	9,	16,	52,	-1,	-1,	56,	37,	33,	-1,	4,	-1,	-1,	-1,	-1,	49,	2,	-1,	-1,	58,	54,	-1,	32,	19,	-1,	10,	15,	-1,	-1,	-1,	-1,	-1,	-1,	23,	61,	-1,	-1,	46,	-1,	-1,	44,	-1,	34,	-1,	63,	-1,	-1,	-1,	-1,	28,	1,	26,	12,	-1,	55,	-1,	29,	62,	-1,	50,	-1,	13,	36|
12,	-1,	-1,	-1,	-1,	-1,	-1,	26,	-1,	-1,	-1,	50,	15,	-1,	3,	-1,	-1,	-1,	-1,	25,	-1,	-1,	-1,	-1,	-1,	-1,	-1,	59,	56,	23,	-1,	34,	-1,	55,	45,	-1,	-1,	37,	-1,	-1,	64,	-1,	-1,	-1,	46,	17,	-1,	-1,	44,	16,	4,	-1,	-1,	-1,	-1,	52,	-1,	-1,	-1,	48,	-1,	14,	-1,	-1|
-1,	14,	5,	-1,	-1,	-1,	-1,	29,	-1,	43,	63,	-1,	-1,	-1,	-1,	18,	-1,	-1,	20,	-1,	-1,	-1,	-1,	8,	-1,	58,	27,	60,	62,	-1,	-1,	51,	10,	1,	-1,	-1,	-1,	-1,	50,	-1,	55,	-1,	12,	26,	45,	15,	9,	-1,	47,	7,	-1,	-1,	56,	25,	-1,	-1,	-1,	-1,	54,	28,	-1,	-1,	-1,	-1|
4,	-1,	41,	-1,	23,	47,	-1,	-1,	-1,	-1,	-1,	-1,	-1,	59,	-1,	-1,	28,	-1,	-1,	-1,	-1,	33,	-1,	19,	16,	-1,	22,	-1,	-1,	-1,	14,	-1,	43,	-1,	-1,	11,	-1,	51,	-1,	39,	21,	-1,	18,	5,	29,	58,	10,	-1,	-1,	-1,	-1,	-1,	64,	54,	-1,	34,	-1,	53,	-1,	-1,	-1,	49,	37,	61|
-1,	38,	17,	61,	36,	-1,	57,	-1,	-1,	5,	-1,	12,	-1,	-1,	-1,	48,	39,	-1,	51,	-1,	-1,	46,	-1,	40,	-1,	26,	-1,	55,	-1,	-1,	-1,	49,	33,	-1,	-1,	-1,	-1,	-1,	25,	2,	56,	-1,	-1,	-1,	3,	-1,	-1,	-1,	14,	-1,	43,	-1,	32,	-1,	-1,	-1,	34,	22,	-1,	47,	-1,	52,	-1,	-1|
42,	39,	2,	-1,	-1,	-1,	-1,	64,	23,	-1,	-1,	-1,	-1,	49,	-1,	-1,	-1,	12,	-1,	-1,	1,	-1,	-1,	-1,	-1,	41,	-1,	-1,	-1,	-1,	13,	-1,	-1,	-1,	-1,	17,	-1,	-1,	-1,	26,	-1,	61,	54,	-1,	-1,	57,	-1,	-1,	60,	15,	24,	-1,	33,	46,	-1,	-1,	-1,	-1,	-1,	38,	25,	-1,	-1,	-1|
-1,	-1,	-1,	-1,	-1,	40,	53,	-1,	-1,	-1,	-1,	35,	14,	-1,	-1,	-1,	-1,	-1,	26,	-1,	-1,	5,	-1,	16,	54,	-1,	-1,	-1,	21,	7,	-1,	-1,	-1,	-1,	-1,	60,	24,	-1,	31,	-1,	1,	8,	-1,	13,	-1,	20,	48,	36,	-1,	-1,	17,	10,	-1,	-1,	9,	-1,	-1,	-1,	51,	-1,	-1,	-1,	27,	32|
-1,	-1,	38,	-1,	-1,	19,	55,	-1,	-1,	31,	-1,	52,	-1,	-1,	-1,	-1,	2,	39,	-1,	-1,	21,	-1,	64,	1,	3,	-1,	-1,	16,	54,	-1,	-1,	-1,	-1,	-1,	-1,	-1,	56,	18,	-1,	59,	25,	13,	-1,	46,	20,	-1,	-1,	-1,	-1,	61,	-1,	-1,	-1,	11,	-1,	-1,	-1,	-1,	32,	51,	48,	30,	49,	-1|
40,	-1,	59,	20,	-1,	39,	23,	33,	-1,	53,	-1,	6,	16,	-1,	4,	45,	-1,	28,	-1,	-1,	-1,	29,	-1,	31,	-1,	-1,	-1,	-1,	-1,	-1,	-1,	64,	7,	14,	24,	-1,	-1,	-1,	-1,	-1,	-1,	21,	22,	-1,	55,	-1,	57,	48,	41,	-1,	-1,	-1,	-1,	8,	-1,	-1,	-1,	34,	58,	-1,	56,	-1,	-1,	37|
7,	-1,	-1,	-1,	-1,	-1,	-1,	12,	42,	-1,	-1,	-1,	-1,	37,	34,	-1,	-1,	-1,	-1,	-1,	-1,	-1,	-1,	-1,	-1,	-1,	-1,	-1,	-1,	-1,	-1,	-1,	-1,	-1,	-1,	48,	31,	13,	-1,	-1,	-1,	59,	-1,	2,	-1,	-1,	-1,	6,	21,	5,	-1,	-1,	-1,	60,	28,	-1,	36,	-1,	1,	-1,	-1,	-1,	-1,	-1|
-1,	11,	16,	-1,	-1,	21,	51,	-1,	46,	14,	44,	-1,	29,	58,	59,	12,	55,	-1,	10,	-1,	5,	-1,	17,	-1,	-1,	-1,	-1,	-1,	24,	-1,	37,	28,	-1,	-1,	-1,	-1,	-1,	30,	1,	-1,	-1,	-1,	-1,	39,	-1,	-1,	45,	-1,	-1,	43,	-1,	-1,	-1,	-1,	-1,	27,	13,	15,	35,	-1,	40,	-1,	-1,	31|
-1,	-1,	46,	54,	-1,	45,	61,	37,	1,	-1,	9,	-1,	5,	-1,	55,	64,	-1,	59,	22,	42,	-1,	51,	-1,	-1,	-1,	4,	-1,	14,	-1,	-1,	-1,	-1,	-1,	38,	-1,	52,	60,	-1,	-1,	-1,	-1,	-1,	-1,	-1,	-1,	40,	-1,	-1,	18,	19,	50,	48,	-1,	-1,	20,	-1,	-1,	25,	-1,	33,	2,	-1,	12,	-1|
-1,	64,	-1,	50,	-1,	-1,	-1,	-1,	17,	25,	-1,	18,	-1,	-1,	38,	-1,	63,	60,	-1,	43,	-1,	49,	-1,	62,	-1,	-1,	52,	-1,	-1,	5,	-1,	-1,	-1,	2,	-1,	57,	34,	-1,	-1,	45,	-1,	28,	42,	54,	14,	-1,	-1,	-1,	-1,	-1,	-1,	-1,	-1,	-1,	15,	-1,	-1,	-1,	-1,	-1,	39,	19,	22,	-1|
-1,	-1,	52,	-1,	-1,	-1,	-1,	1,	7,	-1,	-1,	24,	-1,	-1,	-1,	40,	50,	-1,	19,	-1,	-1,	-1,	-1,	27,	48,	59,	57,	-1,	-1,	-1,	21,	9,	-1,	-1,	-1,	-1,	-1,	-1,	-1,	55,	34,	47,	-1,	-1,	-1,	-1,	64,	-1,	-1,	12,	16,	-1,	-1,	29,	-1,	45,	-1,	3,	-1,	-1,	14,	-1,	63,	-1|
-1,	-1,	-1,	31,	56,	35,	17,	-1,	-1,	-1,	-1,	8,	-1,	-1,	21,	-1,	38,	-1,	3,	-1,	-1,	-1,	53,	-1,	-1,	-1,	-1,	49,	-1,	-1,	-1,	13,	29,	46,	-1,	-1,	19,	42,	-1,	-1,	43,	23,	32,	7,	-1,	-1,	-1,	-1,	-1,	-1,	-1,	22,	-1,	9,	-1,	57,	-1,	-1,	-1,	20,	-1,	41,	-1,	54|
-1,	3,	-1,	-1,	13,	-1,	-1,	-1,	-1,	-1,	-1,	30,	27,	-1,	-1,	57,	-1,	-1,	-1,	11,	-1,	4,	59,	-1,	7,	-1,	-1,	-1,	31,	-1,	10,	50,	49,	52,	-1,	38,	-1,	15,	39,	-1,	-1,	-1,	-1,	-1,	-1,	-1,	54,	56,	-1,	-1,	1,	-1,	-1,	-1,	53,	16,	-1,	-1,	42,	-1,	34,	9,	-1,	-1|
-1,	63,	-1,	-1,	-1,	44,	-1,	20,	34,	1,	-1,	46,	-1,	-1,	-1,	4,	-1,	-1,	-1,	-1,	-1,	31,	-1,	-1,	28,	-1,	-1,	42,	-1,	-1,	-1,	-1,	-1,	-1,	35,	24,	29,	-1,	6,	51,	48,	-1,	-1,	-1,	5,	-1,	3,	-1,	30,	-1,	-1,	-1,	-1,	-1,	-1,	12,	-1,	58,	-1,	-1,	-1,	39,	19,	-1|
54,	-1,	32,	40,	-1,	46,	-1,	16,	-1,	-1,	-1,	-1,	11,	-1,	-1,	56,	-1,	-1,	49,	24,	7,	-1,	-1,	-1,	-1,	29,	-1,	62,	38,	47,	-1,	-1,	-1,	-1,	-1,	27,	-1,	41,	-1,	-1,	-1,	14,	37,	-1,	-1,	-1,	-1,	-1,	15,	-1,	-1,	61,	-1,	19,	-1,	-1,	-1,	-1,	20,	-1,	60,	3,	2,	-1|
48,	-1,	37,	-1,	5,	9,	-1,	-1,	54,	38,	-1,	-1,	26,	-1,	-1,	50,	42,	8,	-1,	47,	-1,	-1,	-1,	-1,	-1,	-1,	-1,	-1,	-1,	21,	61,	-1,	58,	34,	-1,	-1,	14,	-1,	-1,	-1,	-1,	-1,	-1,	-1,	35,	32,	-1,	-1,	29,	-1,	33,	20,	-1,	-1,	-1,	60,	1,	-1,	22,	-1,	-1,	-1,	31,	-1|
-1,	30,	-1,	39,	-1,	53,	15,	-1,	-1,	9,	-1,	7,	40,	-1,	-1,	-1,	-1,	56,	57,	-1,	-1,	28,	-1,	-1,	-1,	-1,	6,	33,	-1,	-1,	43,	19,	-1,	5,	18,	2,	-1,	-1,	-1,	54,	4,	-1,	-1,	-1,	-1,	-1,	63,	47,	-1,	-1,	23,	-1,	-1,	27,	59,	-1,	-1,	8,	49,	-1,	-1,	37,	-1,	-1|
-1,	-1,	-1,	-1,	-1,	-1,	47,	49,	14,	32,	59,	45,	17,	-1,	-1,	-1,	-1,	50,	-1,	63,	19,	-1,	-1,	-1,	-1,	-1,	-1,	-1,	-1,	27,	56,	-1,	46,	40,	20,	-1,	-1,	8,	16,	-1,	-1,	6,	31,	24,	-1,	11,	18,	-1,	54,	-1,	34,	-1,	-1,	-1,	7,	-1,	-1,	-1,	48,	21,	-1,	36,	-1,	-1|
14,	58,	-1,	60,	-1,	12,	19,	-1,	-1,	-1,	-1,	-1,	-1,	-1,	51,	-1,	-1,	53,	39,	-1,	34,	30,	-1,	9,	-1,	-1,	-1,	-1,	-1,	40,	44,	46,	-1,	-1,	-1,	-1,	-1,	-1,	-1,	47,	-1,	-1,	61,	-1,	-1,	-1,	43,	8,	-1,	-1,	45,	-1,	36,	28,	-1,	-1,	50,	-1,	-1,	-1,	-1,	15,	-1,	-1|
-1,	35,	-1,	-1,	10,	-1,	-1,	-1,	61,	-1,	24,	44,	-1,	53,	-1,	-1,	20,	-1,	-1,	58,	32,	16,	1,	-1,	-1,	9,	-1,	39,	34,	-1,	-1,	-1,	-1,	45,	48,	13,	-1,	-1,	62,	-1,	-1,	-1,	-1,	21,	-1,	-1,	25,	57,	40,	51,	-1,	-1,	42,	-1,	-1,	38,	54,	52,	47,	-1,	-1,	6,	-1,	-1|
51,	56,	-1,	38,	33,	-1,	64,	-1,	32,	15,	-1,	-1,	-1,	36,	60,	-1,	-1,	-1,	-1,	-1,	-1,	-1,	-1,	14,	-1,	-1,	7,	-1,	42,	46,	-1,	-1,	-1,	-1,	-1,	-1,	2,	-1,	13,	21,	-1,	-1,	57,	-1,	25,	-1,	20,	-1,	49,	-1,	-1,	-1,	62,	-1,	-1,	-1,	19,	18,	-1,	-1,	29,	27,	43,	-1|
-1,	26,	19,	-1,	-1,	-1,	21,	-1,	-1,	47,	-1,	-1,	-1,	-1,	49,	38,	10,	-1,	-1,	-1,	50,	18,	58,	-1,	-1,	-1,	-1,	-1,	-1,	-1,	-1,	-1,	-1,	-1,	9,	-1,	-1,	56,	-1,	-1,	-1,	-1,	4,	-1,	8,	-1,	-1,	-1,	22,	-1,	-1,	33,	-1,	24,	-1,	3,	42,	62,	-1,	-1,	-1,	44,	34,	-1|
9,	10,	44,	-1,	-1,	-1,	41,	-1,	-1,	46,	12,	42,	25,	-1,	61,	51,	-1,	17,	-1,	33,	-1,	64,	-1,	13,	-1,	-1,	-1,	-1,	-1,	-1,	40,	1,	18,	6,	-1,	-1,	47,	14,	15,	60,	-1,	-1,	-1,	-1,	-1,	-1,	-1,	-1,	-1,	31,	-1,	56,	-1,	-1,	-1,	-1,	22,	26,	23,	-1,	11,	24,	-1,	-1|
-1,	46,	-1,	42,	29,	11,	13,	32,	-1,	-1,	39,	53,	1,	-1,	-1,	30,	-1,	24,	5,	-1,	31,	-1,	-1,	35,	-1,	-1,	25,	-1,	-1,	4,	-1,	18,	3,	54,	62,	-1,	7,	-1,	-1,	-1,	27,	-1,	-1,	59,	-1,	-1,	-1,	55,	-1,	-1,	-1,	-1,	-1,	-1,	48,	-1,	10,	40,	-1,	64,	-1,	33,	-1,	6|
61,	17,	53,	3,	-1,	14,	-1,	18,	-1,	-1,	29,	-1,	43,	-1,	-1,	-1,	-1,	-1,	30,	-1,	-1,	11,	-1,	-1,	35,	-1,	-1,	-1,	-1,	-1,	-1,	56,	-1,	-1,	59,	16,	41,	-1,	-1,	-1,	-1,	60,	-1,	-1,	64,	-1,	6,	1,	50,	-1,	52,	-1,	8,	-1,	34,	20,	-1,	-1,	39,	2,	-1,	-1,	28,	48|
16,	-1,	4,	25,	-1,	28,	-1,	-1,	8,	6,	35,	-1,	48,	-1,	-1,	-1,	-1,	-1,	-1,	-1,	-1,	-1,	49,	-1,	-1,	-1,	64,	38,	-1,	-1,	20,	-1,	53,	-1,	-1,	26,	-1,	-1,	-1,	12,	-1,	10,	-1,	-1,	40,	-1,	-1,	-1,	-1,	-1,	-1,	23,	29,	51,	32,	-1,	-1,	-1,	14,	-1,	-1,	1,	-1,	-1|
49,	-1,	-1,	59,	48,	7,	-1,	-1,	9,	-1,	11,	21,	34,	-1,	-1,	16,	6,	52,	2,	37,	-1,	47,	-1,	39,	-1,	-1,	-1,	54,	-1,	10,	-1,	32,	-1,	-1,	51,	-1,	50,	-1,	-1,	-1,	-1,	-1,	-1,	28,	18,	-1,	42,	22,	45,	-1,	64,	-1,	-1,	-1,	-1,	-1,	20,	12,	53,	15,	-1,	-1,	-1,	-1|
8,	20,	-1,	-1,	-1,	-1,	-1,	-1,	-1,	-1,	-1,	33,	-1,	-1,	-1,	-1,	-1,	-1,	-1,	-1,	42,	27,	-1,	-1,	-1,	62,	-1,	-1,	12,	34,	26,	-1,	-1,	24,	4,	-1,	36,	49,	-1,	-1,	30,	63,	2,	-1,	-1,	-1,	-1,	-1,	-1,	38,	6,	-1,	-1,	5,	-1,	-1,	17,	-1,	-1,	-1,	47,	45,	-1,	46|
3,	-1,	14,	-1,	12,	-1,	-1,	21,	-1,	59,	-1,	-1,	-1,	9,	-1,	6,	-1,	57,	-1,	34,	-1,	-1,	7,	-1,	-1,	13,	-1,	44,	-1,	-1,	5,	63,	38,	-1,	30,	-1,	-1,	-1,	-1,	-1,	-1,	1,	-1,	-1,	-1,	-1,	60,	19,	2,	-1,	-1,	-1,	-1,	17,	-1,	42,	-1,	37,	40,	-1,	-1,	-1,	-1,	20|
-1,	13,	34,	64,	7,	-1,	50,	44,	-1,	-1,	-1,	-1,	-1,	63,	-1,	-1,	-1,	-1,	-1,	-1,	-1,	38,	60,	-1,	-1,	-1,	32,	-1,	-1,	-1,	-1,	-1,	-1,	-1,	33,	-1,	-1,	-1,	11,	-1,	51,	62,	-1,	-1,	15,	55,	-1,	-1,	-1,	-1,	-1,	31,	-1,	-1,	47,	9,	49,	-1,	-1,	-1,	3,	-1,	-1,	19|
-1,	-1,	36,	1,	27,	-1,	-1,	-1,	-1,	-1,	-1,	-1,	-1,	50,	2,	23,	-1,	47,	-1,	56,	49,	-1,	-1,	-1,	52,	-1,	-1,	19,	40,	-1,	-1,	-1,	13,	7,	60,	-1,	-1,	-1,	-1,	22,	18,	-1,	-1,	-1,	9,	-1,	-1,	-1,	12,	3,	58,	14,	5,	-1,	-1,	-1,	61,	-1,	-1,	-1,	-1,	10,	-1,	15|
55,	-1,	-1,	37,	61,	-1,	-1,	2,	-1,	-1,	38,	-1,	8,	-1,	-1,	-1,	-1,	19,	-1,	54,	35,	32,	31,	30,	-1,	-1,	56,	-1,	47,	-1,	-1,	33,	-1,	-1,	-1,	15,	-1,	-1,	26,	-1,	-1,	-1,	-1,	52,	-1,	49,	-1,	-1,	63,	21,	-1,	-1,	-1,	36,	-1,	-1,	59,	-1,	-1,	-1,	-1,	16,	51,	64|
-1,	15,	-1,	58,	53,	-1,	62,	57,	19,	7,	-1,	61,	-1,	24,	-1,	-1,	-1,	36,	-1,	-1,	28,	-1,	5,	-1,	-1,	-1,	26,	-1,	-1,	-1,	22,	-1,	17,	-1,	52,	-1,	-1,	6,	-1,	-1,	-1,	-1,	-1,	-1,	-1,	42,	-1,	23,	-1,	-1,	-1,	-1,	-1,	18,	1,	43,	60,	-1,	-1,	45,	8,	-1,	-1,	41|
-1,	4,	47,	-1,	39,	-1,	-1,	23,	-1,	-1,	-1,	48,	31,	-1,	64,	55,	-1,	42,	-1,	-1,	-1,	-1,	63,	-1,	-1,	-1,	-1,	36,	-1,	-1,	-1,	-1,	-1,	12,	44,	-1,	-1,	5,	-1,	3,	-1,	-1,	11,	-1,	-1,	38,	-1,	13,	-1,	25,	-1,	-1,	57,	49,	-1,	-1,	-1,	56,	-1,	-1,	-1,	-1,	-1,	29|
63,	9,	-1,	-1,	-1,	5,	-1,	48,	39,	-1,	52,	-1,	4,	-1,	14,	-1,	59,	-1,	-1,	-1,	-1,	26,	-1,	-1,	46,	31,	3,	-1,	43,	24,	-1,	37,	-1,	-1,	-1,	-1,	55,	-1,	-1,	18,	20,	-1,	21,	-1,	12,	-1,	-1,	-1,	6,	-1,	38,	51,	7,	40,	-1,	30,	-1,	-1,	-1,	-1,	23,	25,	-1,	-1|
-1,	19,	51,	-1,	-1,	-1,	56,	-1,	-1,	-1,	53,	32,	-1,	40,	37,	54,	22,	-1,	-1,	12,	-1,	-1,	52,	23,	41,	-1,	35,	-1,	-1,	49,	60,	-1,	-1,	9,	-1,	58,	1,	-1,	-1,	-1,	2,	-1,	-1,	50,	-1,	59,	-1,	30,	-1,	-1,	-1,	-1,	-1,	-1,	24,	8,	57,	-1,	-1,	-1,	-1,	-1,	48,	63|
-1,	-1,	48,	51,	59,	-1,	52,	27,	44,	-1,	-1,	-1,	12,	18,	32,	26,	-1,	35,	-1,	-1,	-1,	-1,	47,	-1,	62,	36,	58,	-1,	37,	-1,	-1,	-1,	14,	28,	-1,	-1,	-1,	50,	42,	-1,	-1,	-1,	-1,	-1,	-1,	-1,	-1,	-1,	17,	-1,	-1,	-1,	-1,	1,	-1,	21,	46,	20,	-1,	-1,	13,	-1,	24,	60|
19,	-1,	6,	47,	-1,	-1,	-1,	30,	-1,	-1,	8,	-1,	42,	-1,	9,	-1,	62,	33,	-1,	32,	-1,	-1,	-1,	-1,	40,	64,	-1,	-1,	-1,	-1,	55,	48,	60,	-1,	-1,	-1,	22,	-1,	17,	-1,	-1,	-1,	-1,	18,	-1,	-1,	36,	-1,	-1,	-1,	-1,	24,	58,	23,	-1,	-1,	-1,	16,	57,	-1,	37,	29,	-1,	39|
-1,	-1,	55,	-1,	57,	-1,	-1,	-1,	-1,	20,	-1,	-1,	-1,	-1,	50,	62,	-1,	-1,	-1,	-1,	-1,	7,	-1,	-1,	-1,	-1,	-1,	-1,	-1,	-1,	2,	-1,	56,	-1,	-1,	-1,	39,	-1,	-1,	-1,	37,	17,	5,	-1,	23,	-1,	-1,	-1,	46,	-1,	-1,	-1,	-1,	48,	-1,	32,	43,	47,	-1,	-1,	12,	-1,	-1,	-1|
-1,	-1,	-1,	-1,	24,	37,	-1,	-1,	59,	-1,	-1,	-1,	47,	-1,	58,	13,	-1,	27,	-1,	55,	-1,	-1,	-1,	-1,	-1,	63,	-1,	-1,	-1,	18,	12,	-1,	6,	-1,	5,	-1,	45,	21,	-1,	-1,	33,	-1,	16,	-1,	-1,	22,	40,	-1,	-1,	-1,	-1,	49,	-1,	57,	-1,	39,	-1,	-1,	-1,	35,	-1,	-1,	-1,	-1|
-1,	-1,	-1,	21,	-1,	61,	-1,	-1,	-1,	-1,	60,	-1,	24,	-1,	-1,	52,	-1,	-1,	18,	-1,	-1,	-1,	-1,	20,	-1,	-1,	-1,	-1,	-1,	3,	-1,	25,	-1,	41,	-1,	-1,	-1,	43,	-1,	-1,	28,	-1,	48,	-1,	6,	-1,	50,	44,	33,	-1,	-1,	9,	34,	-1,	5,	29,	-1,	-1,	27,	-1,	-1,	11,	40,	-1|
22,	1,	-1,	2,	50,	49,	-1,	4,	-1,	-1,	57,	29,	-1,	-1,	-1,	-1,	-1,	58,	-1,	16,	-1,	41,	6,	25,	-1,	-1,	14,	34,	-1,	-1,	-1,	45,	44,	26,	31,	-1,	-1,	54,	-1,	-1,	39,	-1,	52,	20,	-1,	-1,	13,	24,	43,	56,	3,	64,	55,	38,	-1,	-1,	-1,	-1,	-1,	-1,	9,	-1,	-1,	-1|
-1,	53,	-1,	-1,	-1,	-1,	25,	-1,	31,	-1,	-1,	-1,	6,	17,	-1,	-1,	-1,	-1,	59,	-1,	43,	-1,	-1,	-1,	23,	44,	-1,	57,	15,	-1,	-1,	-1,	-1,	-1,	16,	-1,	18,	55,	24,	29,	9,	-1,	-1,	4,	-1,	21,	56,	-1,	28,	-1,	62,	60,	20,	61,	-1,	36,	-1,	-1,	-1,	5,	-1,	22,	-1,	-1|
38,	-1,	62,	-1,	-1,	-1,	63,	-1,	-1,	35,	64,	-1,	3,	45,	36,	-1,	-1,	-1,	4,	57,	9,	56,	-1,	53,	-1,	-1,	-1,	24,	28,	22,	-1,	-1,	48,	19,	-1,	-1,	-1,	-1,	-1,	-1,	-1,	11,	-1,	-1,	-1,	-1,	-1,	58,	37,	-1,	-1,	-1,	-1,	-1,	16,	14,	32,	6,	59,	-1,	-1,	2,	-1,	51|
-1,	-1,	1,	-1,	-1,	10,	-1,	-1,	29,	-1,	55,	59,	-1,	26,	22,	-1,	31,	51,	-1,	23,	-1,	34,	-1,	-1,	30,	-1,	-1,	-1,	-1,	-1,	-1,	-1,	-1,	-1,	-1,	62,	64,	45,	-1,	-1,	-1,	-1,	6,	-1,	52,	48,	-1,	-1,	-1,	-1,	14,	-1,	-1,	58,	-1,	33,	47,	2,	-1,	-1,	-1,	-1,	-1,	-1|
45,	-1,	-1,	11,	-1,	-1,	34,	-1,	53,	-1,	-1,	-1,	-1,	-1,	35,	-1,	-1,	-1,	-1,	-1,	46,	-1,	-1,	58,	-1,	-1,	21,	-1,	50,	55,	-1,	-1,	28,	-1,	29,	51,	-1,	2,	57,	13,	-1,	-1,	-1,	-1,	32,	-1,	8,	18,	-1,	49,	-1,	-1,	30,	-1,	-1,	-1,	-1,	-1,	-1,	-1,	-1,	-1,	-1,	23|
-1,	-1,	58,	62,	-1,	-1,	31,	52,	-1,	34,	33,	37,	-1,	8,	-1,	-1,	-1,	-1,	-1,	-1,	57,	-1,	-1,	28,	-1,	-1,	-1,	41,	-1,	14,	25,	-1,	-1,	-1,	-1,	56,	32,	-1,	49,	23,	-1,	40,	-1,	-1,	-1,	-1,	39,	-1,	-1,	-1,	63,	-1,	51,	-1,	-1,	-1,	48,	35,	-1,	-1,	-1,	-1,	20,	44|
39,	-1,	-1,	-1,	46,	-1,	29,	-1,	-1,	-1,	48,	-1,	-1,	-1,	56,	-1,	-1,	-1,	-1,	-1,	-1,	-1,	-1,	-1,	-1,	19,	8,	-1,	60,	16,	45,	23,	59,	42,	-1,	-1,	38,	1,	18,	-1,	-1,	-1,	-1,	-1,	-1,	30,	12,	-1,	-1,	-1,	-1,	-1,	-1,	-1,	44,	-1,	-1,	-1,	-1,	36,	53,	-1,	62,	-1|
17,	-1,	3,	55,	-1,	-1,	42,	-1,	-1,	60,	54,	-1,	64,	-1,	23,	7,	-1,	21,	38,	41,	-1,	-1,	-1,	-1,	39,	6,	-1,	-1,	-1,	-1,	-1,	-1,	19,	22,	-1,	53,	-1,	48,	63,	52,	-1,	46,	-1,	47,	10,	-1,	-1,	-1,	-1,	-1,	-1,	59,	-1,	4,	43,	2,	-1,	31,	5,	-1,	15,	-1,	8,	-1|
-1,	22,	-1,	-1,	21,	-1,	-1,	19,	-1,	-1,	-1,	20,	-1,	43,	-1,	-1,	24,	6,	-1,	-1,	-1,	-1,	-1,	44,	-1,	-1,	-1,	-1,	52,	31,	-1,	-1,	15,	-1,	25,	-1,	-1,	-1,	-1,	61,	-1,	-1,	-1,	-1,	-1,	-1,	-1,	29,	-1,	50,	-1,	-1,	-1,	34,	-1,	10,	33,	-1,	-1,	-1,	42,	63,	-1,	40|
5,	-1,	-1,	-1,	-1,	-1,	-1,	-1,	-1,	63,	15,	-1,	21,	-1,	30,	-1,	-1,	-1,	-1,	20,	18,	50,	16,	-1,	4,	-1,	-1,	-1,	-1,	-1,	-1,	10,	26,	37,	39,	-1,	3,	58,	54,	-1,	57,	-1,	44,	-1,	34,	-1,	-1,	-1,	56,	-1,	-1,	-1,	-1,	-1,	-1,	-1,	27,	-1,	45,	-1,	38,	-1,	29,	52|
-1,	-1,	60,	-1,	-1,	15,	14,	-1,	-1,	-1,	-1,	58,	50,	-1,	25,	-1,	4,	-1,	-1,	-1,	2,	1,	32,	-1,	-1,	61,	51,	13,	-1,	-1,	-1,	-1,	-1,	-1,	41,	33,	-1,	35,	-1,	-1,	53,	-1,	63,	-1,	-1,	-1,	59,	-1,	-1,	45,	42,	21,	37,	-1,	-1,	-1,	-1,	46,	19,	-1,	43,	-1,	-1,	-1|
-1,	55,	13,	-1,	-1,	-1,	44,	-1,	48,	64,	45,	15,	-1,	19,	-1,	-1,	36,	-1,	-1,	4,	-1,	20,	-1,	2,	42,	-1,	39,	5,	-1,	61,	-1,	-1,	-1,	-1,	-1,	18,	-1,	31,	-1,	-1,	-1,	58,	29,	14,	-1,	-1,	17,	-1,	1,	24,	-1,	47,	-1,	43,	51,	-1,	21,	-1,	12,	-1,	-1,	-1,	-1,	-1|
-1,	-1,	-1,	33,	-1,	54,	30,	-1,	43,	52,	37,	-1,	-1,	-1,	-1,	-1,	34,	-1,	48,	-1,	3,	8,	-1,	42,	-1,	-1,	-1,	-1,	-1,	-1,	58,	55,	-1,	17,	-1,	-1,	12,	-1,	-1,	49,	-1,	-1,	-1,	-1,	-1,	24,	53,	-1,	-1,	-1,	-1,	-1,	-1,	-1,	56,	-1,	63,	-1,	-1,	44,	-1,	-1,	39,	2|
53,	48,	-1,	35,	-1,	4,	43,	58,	-1,	8,	3,	51,	22,	-1,	-1,	-1,	-1,	23,	25,	-1,	-1,	14,	46,	33,	-1,	15,	-1,	-1,	-1,	-1,	-1,	-1,	16,	60,	-1,	-1,	26,	-1,	-1,	24,	-1,	41,	-1,	-1,	56,	18,	-1,	-1,	10,	-1,	54,	7,	-1,	50,	6,	-1,	-1,	-1,	-1,	-1,	30,	-1,	-1,	-1|
-1,	-1,	15,	49,	-1,	-1,	-1,	-1,	-1,	-1,	6,	-1,	30,	-1,	20,	21,	61,	-1,	-1,	-1,	-1,	-1,	-1,	-1,	-1,	-1,	-1,	-1,	-1,	36,	11,	-1,	-1,	-1,	-1,	-1,	-1,	-1,	9,	-1,	-1,	-1,	-1,	1,	60,	-1,	7,	-1,	-1,	35,	48,	-1,	-1,	33,	-1,	-1,	53,	-1,	-1,	14,	-1,	-1,	-1,	-1|
50,	-1,	64,	-1,	-1,	-1,	27,	38,	-1,	55,	10,	-1,	-1,	-1,	-1,	-1,	56,	-1,	-1,	62,	-1,	-1,	41,	-1,	-1,	-1,	43,	47,	-1,	-1,	-1,	4,	-1,	-1,	-1,	20,	21,	-1,	-1,	35,	-1,	-1,	-1,	-1,	44,	51,	-1,	-1,	53,	36,	18,	-1,	-1,	-1,	-1,	61,	-1,	-1,	-1,	-1,	17,	-1,	25,	7|
-1,	2,	-1,	-1,	-1,	22,	16,	-1,	35,	50,	-1,	-1,	-1,	-1,	-1,	-1,	-1,	-1,	-1,	29,	-1,	-1,	10,	-1,	-1,	46,	-1,	56,	-1,	41,	-1,	21,	45,	51,	-1,	-1,	-1,	-1,	34,	-1,	-1,	48,	30,	57,	-1,	-1,	47,	-1,	-1,	60,	-1,	13,	-1,	-1,	-1,	-1,	40,	43,	-1,	3,	4,	-1,	6,	-1|
1,	-1,	25,	9,	-1,	-1,	-1,	40,	27,	-1,	62,	-1,	61,	46,	-1,	-1,	58,	7,	12,	51,	-1,	6,	50,	-1,	53,	34,	-1,	-1,	-1,	-1,	-1,	-1,	-1,	-1,	-1,	-1,	-1,	-1,	-1,	-1,	-1,	2,	-1,	-1,	-1,	-1,	31,	10,	-1,	23,	21,	17,	-1,	22,	-1,	41,	-1,	-1,	-1,	-1,	-1,	-1,	56,	42|
21,	-1,	-1,	24,	11,	23,	39,	-1,	-1,	-1,	-1,	16,	-1,	13,	-1,	-1,	45,	38,	-1,	-1,	-1,	-1,	43,	26,	63,	-1,	-1,	-1,	-1,	-1,	-1,	-1,	42,	-1,	14,	-1,	-1,	59,	-1,	53,	-1,	33,	-1,	-1,	-1,	-1,	-1,	-1,	-1,	34,	27,	58,	-1,	-1,	29,	62,	-1,	-1,	15,	-1,	57,	-1,	-1,	9|];
