sudoku-ls/benchmarks_LEQ/INST_64x64/40/inst64x64_40_90.txt
8
1
-1	21	50	-1	-1	-1	35	-1	-1	-1	2	-1	-1	-1	-1	-1	11	4	31	-1	-1	-1	-1	-1	-1	-1	-1	-1	48	1	32	-1	-1	-1	15	19	-1	12	14	64	-1	43	-1	38	-1	7	-1	-1	-1	-1	-1	-1	27	20	-1	-1	-1	5	17	59	-1	56	-1	33
24	-1	-1	16	-1	-1	-1	-1	37	-1	-1	4	-1	-1	-1	-1	-1	-1	-1	21	-1	54	57	-1	19	-1	10	-1	-1	-1	-1	47	-1	-1	23	-1	-1	-1	46	-1	-1	-1	14	-1	11	-1	41	40	-1	-1	28	-1	-1	-1	-1	-1	-1	-1	-1	-1	-1	-1	-1	-1
12	31	54	10	43	51	33	-1	-1	-1	32	-1	-1	29	-1	60	-1	22	35	25	-1	53	-1	-1	61	38	-1	-1	-1	-1	63	-1	57	55	45	9	-1	37	-1	-1	-1	-1	-1	62	-1	-1	-1	-1	-1	16	4	-1	-1	-1	41	-1	6	-1	-1	-1	-1	-1	-1	21
37	-1	-1	-1	-1	-1	-1	29	-1	43	63	36	53	-1	57	18	-1	34	20	3	-1	-1	24	-1	-1	-1	27	-1	62	6	17	-1	-1	-1	-1	21	59	-1	-1	-1	-1	-1	-1	-1	-1	15	9	52	-1	-1	-1	40	56	-1	49	-1	2	-1	54	28	44	-1	-1	-1
4	-1	-1	-1	23	-1	1	-1	55	-1	27	-1	-1	59	-1	-1	-1	63	62	-1	-1	-1	36	19	-1	2	-1	-1	-1	25	-1	44	-1	-1	56	11	-1	51	-1	-1	-1	-1	18	-1	-1	-1	-1	-1	-1	48	-1	-1	-1	-1	-1	34	12	-1	-1	9	-1	49	-1	61
-1	38	17	-1	-1	-1	-1	-1	13	-1	41	-1	-1	-1	-1	-1	-1	-1	-1	50	-1	-1	-1	40	-1	26	18	55	-1	-1	31	-1	-1	44	54	28	-1	-1	-1	-1	-1	4	-1	-1	-1	-1	-1	-1	-1	59	-1	63	32	-1	11	23	-1	-1	-1	-1	20	-1	-1	24
-1	-1	-1	-1	28	-1	48	64	23	62	31	-1	-1	-1	-1	20	-1	12	37	-1	-1	-1	56	52	-1	-1	36	-1	-1	8	-1	-1	47	-1	-1	-1	5	-1	-1	26	-1	-1	-1	-1	-1	-1	-1	-1	-1	-1	-1	-1	33	-1	-1	19	-1	63	4	38	-1	-1	-1	-1
6	-1	-1	63	-1	-1	-1	-1	-1	56	25	-1	14	-1	-1	-1	64	-1	26	-1	-1	5	55	-1	-1	-1	4	-1	-1	7	-1	-1	62	30	34	-1	-1	29	-1	38	1	8	-1	-1	37	20	48	36	-1	58	-1	10	-1	2	-1	-1	15	-1	-1	57	45	-1	27	32
29	28	38	15	-1	-1	55	34	-1	31	22	-1	-1	47	-1	-1	2	-1	-1	-1	21	58	64	1	3	17	-1	-1	54	-1	-1	42	-1	-1	-1	-1	56	-1	-1	-1	-1	-1	-1	-1	-1	-1	-1	-1	-1	-1	-1	-1	23	-1	-1	-1	8	-1	-1	51	-1	-1	-1	-1
-1	43	-1	-1	-1	39	-1	-1	-1	-1	30	-1	16	-1	4	-1	13	28	-1	-1	25	29	-1	-1	-1	-1	46	-1	19	63	51	64	7	-1	-1	-1	-1	27	-1	-1	50	-1	-1	-1	55	36	57	48	-1	1	-1	-1	-1	-1	-1	-1	62	-1	-1	-1	-1	-1	-1	-1
-1	-1	8	-1	14	63	-1	-1	-1	23	-1	-1	-1	37	34	11	-1	32	-1	46	-1	-1	-1	-1	-1	55	62	25	-1	-1	38	-1	40	15	-1	48	31	-1	-1	33	35	59	51	-1	-1	-1	29	6	-1	-1	-1	-1	10	60	28	-1	-1	-1	1	-1	-1	-1	-1	-1
-1	-1	16	6	-1	-1	51	-1	-1	14	-1	-1	-1	-1	-1	-1	-1	-1	10	-1	-1	-1	-1	-1	-1	-1	-1	-1	-1	60	-1	-1	-1	-1	-1	-1	25	-1	-1	-1	-1	18	-1	39	-1	-1	45	-1	-1	-1	-1	-1	63	-1	-1	-1	-1	-1	-1	42	40	53	-1	-1
-1	-1	46	-1	-1	-1	61	-1	-1	39	9	-1	-1	28	-1	64	-1	-1	22	-1	26	-1	34	-1	-1	-1	29	-1	-1	43	-1	-1	-1	-1	-1	52	-1	-1	-1	16	10	-1	62	63	-1	-1	-1	15	-1	-1	50	-1	-1	-1	20	-1	7	-1	21	-1	-1	-1	-1	27
-1	64	24	50	-1	-1	3	-1	-1	-1	-1	-1	-1	10	38	35	63	-1	11	-1	16	-1	23	62	36	-1	52	-1	-1	5	27	30	-1	-1	-1	57	34	9	-1	-1	-1	-1	42	54	-1	1	-1	41	51	13	-1	-1	-1	-1	-1	-1	-1	-1	-1	-1	-1	19	22	26
-1	-1	52	5	-1	32	-1	-1	-1	-1	61	-1	-1	-1	-1	-1	-1	18	-1	36	20	35	33	-1	-1	59	57	-1	-1	-1	-1	-1	51	-1	-1	-1	11	26	37	-1	34	-1	-1	-1	-1	-1	-1	-1	-1	-1	-1	4	-1	-1	-1	45	23	3	-1	-1	14	-1	-1	-1
-1	-1	26	-1	-1	-1	-1	-1	15	-1	-1	-1	-1	-1	21	63	-1	-1	3	-1	-1	24	53	4	-1	-1	1	49	-1	-1	50	13	-1	-1	61	-1	-1	-1	64	-1	43	23	32	7	16	-1	-1	-1	-1	-1	-1	22	-1	-1	-1	-1	11	59	-1	-1	-1	-1	10	-1
-1	-1	-1	-1	13	18	45	24	-1	-1	-1	-1	-1	48	-1	57	-1	-1	-1	11	-1	-1	-1	-1	7	-1	63	-1	-1	-1	10	50	-1	-1	-1	38	-1	-1	-1	25	29	55	-1	-1	51	2	54	-1	-1	-1	-1	-1	47	-1	-1	-1	-1	-1	-1	23	-1	-1	-1	62
-1	63	-1	17	64	-1	-1	-1	-1	-1	47	46	-1	15	8	-1	-1	-1	-1	61	37	31	25	21	-1	-1	41	-1	-1	-1	57	-1	-1	-1	35	24	29	-1	6	-1	48	-1	-1	23	-1	-1	3	45	-1	9	-1	-1	49	-1	-1	-1	-1	-1	-1	40	-1	39	-1	-1
-1	50	-1	40	55	-1	-1	-1	-1	22	-1	-1	-1	-1	-1	-1	33	-1	-1	-1	-1	-1	51	-1	12	29	-1	-1	-1	47	53	8	-1	63	-1	-1	43	41	-1	-1	58	14	-1	42	39	64	-1	-1	15	18	31	-1	4	-1	-1	-1	-1	-1	20	-1	-1	-1	2	-1
48	25	-1	56	-1	-1	-1	-1	54	38	-1	-1	-1	64	-1	50	-1	8	-1	-1	12	62	40	18	15	-1	-1	23	4	21	61	-1	-1	34	-1	55	14	57	53	19	-1	-1	28	-1	35	-1	49	-1	29	63	-1	20	-1	-1	-1	-1	-1	-1	22	7	51	-1	-1	-1
-1	30	-1	-1	-1	-1	15	-1	-1	9	21	-1	-1	-1	42	-1	35	-1	57	17	44	28	13	-1	-1	11	6	33	-1	-1	43	19	-1	5	18	-1	-1	60	-1	-1	4	26	50	-1	-1	41	63	47	-1	46	-1	-1	48	27	-1	-1	-1	8	-1	25	-1	37	-1	16
33	-1	-1	-1	-1	52	47	-1	14	32	-1	45	17	25	-1	2	15	-1	-1	63	-1	23	26	-1	-1	1	-1	30	58	27	-1	-1	-1	40	-1	-1	-1	8	16	-1	12	-1	31	24	-1	11	-1	62	54	39	-1	44	43	-1	-1	-1	-1	-1	48	-1	-1	-1	53	38
-1	58	-1	60	-1	12	-1	-1	-1	29	-1	62	55	6	-1	-1	48	53	-1	64	-1	-1	-1	9	-1	-1	54	3	25	40	44	-1	31	-1	17	22	-1	-1	7	-1	-1	-1	61	16	38	10	-1	-1	-1	-1	45	37	36	-1	-1	13	50	-1	24	-1	27	-1	-1	-1
-1	-1	43	8	10	-1	26	11	61	37	24	-1	-1	-1	-1	-1	-1	55	29	58	32	-1	1	-1	-1	-1	2	39	34	-1	-1	22	-1	-1	-1	13	-1	-1	-1	-1	60	19	-1	-1	-1	33	-1	-1	-1	-1	56	-1	-1	41	14	38	54	52	47	4	59	-1	-1	12
51	-1	63	-1	-1	1	-1	-1	-1	15	4	-1	-1	-1	60	22	-1	-1	34	53	-1	59	-1	14	-1	-1	-1	-1	42	-1	6	-1	-1	35	-1	-1	2	-1	13	21	24	31	-1	-1	-1	-1	20	50	-1	-1	12	-1	62	16	58	-1	19	18	37	-1	-1	-1	-1	-1
36	-1	19	45	-1	2	21	-1	-1	47	-1	-1	-1	7	-1	-1	-1	-1	-1	48	-1	18	58	12	-1	-1	-1	27	11	-1	-1	-1	61	32	9	-1	52	56	-1	37	-1	-1	4	51	8	-1	-1	-1	22	-1	-1	33	-1	-1	-1	-1	42	-1	16	-1	63	-1	34	25
9	10	-1	-1	-1	-1	41	54	-1	-1	12	42	-1	-1	-1	51	57	17	-1	33	-1	64	-1	-1	-1	-1	-1	-1	-1	-1	-1	-1	18	-1	-1	45	47	14	-1	-1	19	-1	49	-1	-1	-1	-1	38	27	-1	36	-1	35	37	-1	-1	-1	26	23	-1	-1	24	59	55
-1	46	12	-1	29	11	-1	-1	2	-1	-1	53	1	-1	-1	30	51	-1	5	44	-1	60	19	-1	-1	-1	-1	-1	-1	-1	9	-1	-1	-1	62	43	7	-1	-1	17	27	-1	-1	-1	-1	-1	-1	-1	-1	26	15	41	-1	63	48	-1	-1	40	-1	-1	49	-1	-1	6
61	-1	53	3	-1	-1	-1	-1	-1	-1	29	-1	43	44	62	5	32	-1	-1	-1	-1	11	-1	-1	35	24	-1	-1	49	-1	-1	-1	-1	31	59	-1	-1	-1	-1	-1	45	-1	46	12	64	-1	6	-1	-1	42	52	25	8	-1	34	-1	9	-1	-1	-1	21	58	28	-1
16	-1	-1	-1	15	-1	-1	-1	8	6	35	-1	48	56	-1	-1	41	-1	46	9	36	-1	49	-1	-1	50	-1	-1	-1	45	-1	-1	-1	-1	-1	26	44	-1	-1	-1	-1	10	-1	33	-1	39	-1	-1	59	-1	-1	23	-1	-1	-1	-1	-1	7	14	-1	-1	-1	30	-1
-1	62	27	-1	-1	7	-1	43	-1	-1	11	-1	-1	31	13	-1	6	52	-1	37	-1	47	-1	-1	55	-1	-1	54	41	-1	33	-1	25	29	-1	-1	50	-1	-1	1	61	-1	-1	28	18	-1	-1	-1	45	-1	-1	19	60	14	-1	40	-1	12	-1	-1	-1	-1	57	-1
-1	-1	-1	-1	35	-1	37	-1	-1	10	-1	-1	19	-1	-1	-1	16	25	-1	-1	-1	27	61	-1	13	62	-1	-1	12	-1	26	-1	22	-1	4	64	-1	-1	-1	-1	-1	-1	-1	-1	53	29	-1	-1	-1	38	-1	-1	-1	-1	-1	-1	17	-1	-1	-1	-1	45	-1	46
3	-1	-1	-1	12	16	-1	-1	51	-1	-1	-1	-1	9	15	-1	46	57	58	34	-1	-1	7	-1	-1	13	-1	-1	-1	-1	-1	-1	38	-1	-1	54	23	-1	-1	31	-1	1	53	48	41	-1	-1	19	2	-1	29	11	-1	-1	22	42	-1	-1	40	-1	-1	50	36	20
20	13	-1	-1	7	-1	-1	-1	-1	36	-1	41	28	63	-1	-1	-1	-1	-1	6	-1	-1	-1	17	-1	-1	-1	-1	23	-1	48	-1	-1	-1	-1	-1	46	-1	11	43	-1	-1	10	45	15	55	-1	-1	-1	37	35	-1	-1	-1	47	9	49	-1	52	27	-1	-1	21	-1
-1	33	-1	1	27	29	-1	-1	20	-1	-1	57	44	-1	-1	-1	37	-1	-1	56	-1	39	45	-1	52	53	30	-1	-1	-1	4	-1	-1	7	-1	-1	8	-1	21	-1	18	-1	43	-1	-1	16	-1	-1	-1	3	-1	-1	5	-1	64	48	61	-1	34	55	-1	-1	-1	15
-1	-1	-1	37	61	-1	-1	-1	25	11	38	-1	-1	-1	-1	1	-1	-1	44	-1	-1	-1	-1	30	-1	10	-1	-1	-1	-1	42	-1	-1	-1	-1	15	-1	-1	26	-1	-1	24	3	52	-1	-1	14	17	-1	-1	-1	34	-1	36	-1	46	59	-1	43	-1	22	-1	51	64
-1	15	30	-1	53	-1	62	-1	19	7	49	-1	13	24	-1	-1	3	36	-1	2	28	21	-1	-1	-1	12	26	-1	-1	-1	22	14	-1	-1	52	-1	-1	-1	-1	63	-1	-1	-1	-1	47	-1	-1	-1	20	-1	59	16	54	-1	-1	-1	60	-1	-1	-1	-1	4	44	41
35	-1	-1	28	-1	24	-1	23	-1	45	-1	48	31	62	64	-1	9	42	-1	10	-1	15	63	-1	-1	-1	16	36	51	-1	8	-1	27	12	-1	40	37	-1	-1	3	-1	-1	11	-1	-1	38	-1	-1	52	-1	19	-1	-1	-1	60	-1	14	56	-1	-1	7	-1	-1	29
-1	9	10	-1	-1	-1	49	48	39	16	-1	60	4	34	14	-1	59	29	-1	1	-1	26	27	-1	-1	-1	-1	45	-1	-1	-1	-1	-1	-1	-1	-1	-1	-1	56	18	-1	-1	-1	44	-1	8	-1	28	6	-1	-1	51	-1	-1	-1	-1	-1	-1	-1	-1	23	-1	32	-1
-1	-1	51	-1	38	-1	-1	-1	3	-1	53	-1	-1	-1	-1	54	-1	-1	-1	-1	11	-1	-1	23	41	27	-1	-1	-1	49	60	7	34	9	64	58	-1	-1	45	-1	-1	29	-1	-1	-1	-1	-1	30	-1	-1	61	-1	13	44	24	8	57	-1	46	-1	-1	-1	-1	63
-1	16	-1	-1	-1	-1	-1	-1	-1	61	-1	-1	12	-1	-1	-1	-1	-1	-1	-1	-1	-1	-1	49	-1	-1	-1	4	-1	33	-1	-1	14	28	40	-1	57	-1	-1	-1	-1	-1	41	-1	-1	-1	-1	43	17	-1	-1	2	6	1	-1	-1	46	-1	-1	-1	-1	-1	24	-1
-1	-1	-1	-1	-1	-1	-1	30	56	-1	8	-1	-1	-1	9	28	62	-1	-1	32	-1	-1	21	5	-1	64	-1	61	1	53	55	-1	-1	27	-1	-1	22	25	-1	-1	-1	7	-1	18	-1	45	-1	-1	-1	-1	-1	24	-1	23	-1	15	-1	-1	57	-1	37	-1	3	39
-1	29	55	-1	-1	-1	58	14	41	-1	-1	25	-1	-1	-1	-1	-1	-1	-1	38	24	-1	-1	-1	-1	-1	-1	21	-1	-1	2	27	-1	-1	-1	-1	39	-1	61	-1	-1	17	-1	-1	-1	35	-1	3	46	-1	-1	-1	19	-1	18	-1	43	47	-1	-1	-1	-1	33	8
-1	-1	-1	-1	24	-1	9	-1	59	-1	-1	-1	-1	14	58	-1	-1	-1	-1	55	48	-1	-1	36	51	63	-1	-1	17	18	12	-1	-1	64	-1	-1	-1	-1	-1	-1	-1	25	-1	10	-1	22	-1	32	-1	-1	30	49	-1	-1	-1	-1	4	-1	-1	35	31	-1	15	53
-1	-1	-1	-1	-1	61	-1	-1	-1	-1	-1	-1	-1	-1	16	52	17	-1	18	15	-1	-1	22	20	-1	-1	-1	26	-1	-1	30	-1	-1	41	-1	47	13	43	-1	-1	-1	57	-1	64	-1	-1	50	44	33	-1	-1	-1	34	53	5	29	-1	-1	-1	-1	-1	-1	-1	58
22	-1	-1	2	-1	49	-1	-1	10	-1	-1	-1	-1	33	-1	-1	-1	58	-1	16	40	41	-1	25	32	-1	14	34	-1	11	-1	-1	-1	-1	-1	63	-1	54	51	-1	-1	-1	-1	-1	-1	47	-1	-1	-1	-1	-1	64	55	-1	-1	-1	-1	-1	-1	-1	-1	48	-1	30
-1	53	40	-1	-1	-1	-1	-1	-1	30	-1	-1	-1	-1	48	27	1	-1	59	-1	43	-1	37	-1	23	-1	13	57	-1	54	-1	38	-1	58	-1	-1	-1	55	-1	-1	9	-1	8	4	-1	-1	56	-1	-1	47	62	-1	20	-1	26	-1	45	-1	-1	-1	-1	-1	14	50
-1	-1	-1	13	-1	17	63	-1	21	35	-1	-1	-1	-1	-1	-1	26	44	4	-1	-1	56	-1	53	-1	-1	-1	-1	28	22	52	43	-1	19	-1	49	-1	20	-1	8	-1	11	55	-1	-1	34	-1	-1	37	-1	-1	12	-1	-1	-1	-1	32	-1	-1	-1	54	2	61	51
-1	32	-1	27	25	10	-1	63	-1	-1	55	-1	-1	-1	22	-1	-1	51	-1	-1	-1	-1	-1	-1	30	-1	-1	-1	-1	-1	-1	-1	-1	-1	43	-1	-1	-1	-1	-1	-1	9	-1	-1	52	-1	38	-1	-1	20	14	-1	-1	58	-1	-1	47	-1	7	37	41	-1	54	56
-1	-1	-1	11	20	38	34	-1	-1	-1	42	-1	36	4	35	19	-1	-1	-1	-1	46	12	-1	-1	-1	-1	-1	-1	50	-1	-1	15	-1	-1	29	-1	-1	2	-1	13	3	-1	-1	-1	-1	62	-1	18	48	-1	-1	26	30	-1	-1	-1	-1	9	-1	-1	-1	59	-1	-1
-1	-1	58	-1	2	-1	-1	-1	-1	-1	33	37	-1	8	11	-1	47	-1	-1	26	-1	22	-1	28	-1	54	-1	-1	-1	-1	-1	-1	-1	21	-1	-1	-1	24	-1	-1	-1	-1	-1	-1	42	-1	-1	4	16	-1	63	3	-1	7	19	1	-1	35	-1	-1	-1	12	-1	-1
39	24	-1	-1	-1	-1	-1	-1	28	51	-1	-1	-1	-1	-1	-1	-1	-1	-1	-1	-1	63	-1	-1	-1	-1	8	58	60	16	-1	23	-1	-1	11	-1	-1	-1	-1	-1	15	-1	-1	-1	-1	-1	-1	-1	64	41	5	-1	-1	-1	-1	-1	3	14	-1	-1	-1	-1	-1	-1
17	44	3	-1	-1	-1	42	-1	45	60	-1	49	-1	16	23	7	27	-1	38	41	-1	37	-1	11	-1	6	33	18	-1	32	-1	-1	-1	22	-1	-1	-1	-1	-1	52	-1	46	-1	-1	-1	-1	61	35	25	29	-1	-1	24	4	-1	2	-1	-1	-1	-1	15	-1	-1	-1
-1	-1	-1	12	-1	26	28	-1	-1	3	-1	-1	-1	-1	-1	14	24	6	56	45	-1	-1	-1	-1	9	35	37	53	-1	31	-1	-1	15	-1	-1	-1	-1	-1	60	-1	-1	-1	-1	-1	-1	5	-1	-1	62	-1	-1	-1	-1	-1	-1	-1	-1	-1	30	-1	42	-1	-1	-1
-1	-1	-1	-1	51	-1	-1	13	62	-1	-1	1	21	12	-1	31	-1	61	42	20	18	-1	-1	-1	4	48	-1	-1	46	-1	-1	10	-1	37	39	-1	3	-1	54	-1	-1	-1	44	25	34	-1	33	64	56	28	32	-1	9	-1	-1	-1	27	24	-1	-1	-1	-1	-1	52
-1	-1	-1	48	-1	-1	14	47	-1	-1	5	-1	50	-1	25	-1	-1	3	-1	30	-1	-1	-1	-1	38	61	-1	-1	-1	56	64	-1	9	-1	-1	-1	-1	35	55	-1	-1	-1	63	-1	24	-1	59	-1	23	-1	-1	-1	37	52	12	-1	-1	46	-1	26	-1	-1	11	-1
-1	-1	13	-1	-1	-1	-1	-1	48	-1	-1	15	38	19	-1	25	-1	-1	-1	4	-1	-1	-1	-1	-1	7	-1	5	-1	-1	-1	-1	-1	33	-1	-1	62	31	-1	-1	11	-1	29	-1	54	23	17	-1	-1	-1	-1	-1	59	43	51	63	-1	-1	-1	-1	-1	-1	-1	-1
28	18	61	-1	-1	-1	-1	-1	43	52	-1	-1	23	-1	-1	-1	34	13	48	-1	-1	8	-1	-1	-1	-1	-1	1	-1	-1	58	-1	-1	17	-1	-1	-1	40	-1	-1	-1	-1	9	6	21	-1	53	59	-1	14	20	46	-1	-1	56	-1	-1	-1	-1	-1	-1	62	-1	-1
-1	-1	42	35	19	-1	43	-1	-1	-1	-1	51	-1	-1	-1	34	-1	23	-1	59	-1	-1	46	-1	49	15	-1	17	-1	-1	62	-1	-1	60	-1	-1	-1	61	-1	24	36	-1	-1	27	-1	18	28	-1	-1	-1	-1	7	-1	50	6	37	-1	45	55	-1	-1	20	-1	-1
-1	34	-1	49	-1	-1	-1	46	24	44	6	2	-1	54	20	-1	61	-1	-1	-1	27	-1	-1	-1	50	-1	-1	-1	-1	36	-1	31	-1	43	63	4	58	-1	-1	-1	22	-1	-1	1	60	-1	-1	-1	-1	-1	-1	28	-1	-1	-1	5	-1	-1	29	14	32	-1	41	13
50	-1	64	-1	-1	6	27	-1	5	-1	10	9	-1	-1	33	-1	-1	-1	54	-1	-1	19	41	-1	24	14	43	-1	22	48	3	-1	1	-1	13	-1	-1	-1	-1	-1	-1	-1	34	49	44	-1	-1	-1	53	36	-1	-1	-1	30	-1	-1	16	-1	-1	58	17	-1	-1	7
-1	-1	-1	-1	-1	22	16	-1	35	50	-1	28	39	-1	53	36	-1	-1	-1	-1	15	-1	10	-1	18	-1	-1	56	-1	41	-1	21	45	51	-1	25	-1	44	-1	-1	62	48	-1	-1	63	-1	47	26	-1	-1	-1	-1	12	-1	55	11	-1	-1	31	3	4	-1	-1	-1
-1	-1	25	9	-1	-1	-1	-1	27	-1	-1	14	-1	46	-1	-1	-1	7	12	51	55	-1	-1	64	53	-1	-1	52	-1	20	-1	29	-1	39	57	5	-1	11	-1	-1	-1	2	-1	-1	43	-1	31	10	-1	-1	21	-1	44	22	45	-1	37	49	-1	-1	-1	8	56	-1
-1	5	31	-1	-1	-1	39	-1	-1	-1	17	-1	56	-1	-1	-1	-1	-1	1	-1	-1	-1	43	26	-1	37	-1	-1	-1	30	-1	12	-1	-1	-1	36	6	59	22	-1	-1	33	-1	-1	-1	46	-1	-1	8	34	27	-1	-1	32	-1	-1	-1	-1	-1	19	-1	61	-1	-1
64 
12 39 57 49
7 3 30 50
24 24 26 56
17 22 59 6
33 31 4 3
48 58 27 34
15 9 43 22
44 55 34 21
43 30 25 44
51 13 54 56
4 58 64 5
60 7 17 10
22 45 5 34
42 21 16 53
15 30 60 3
6 63 64 12
26 50 47 14
24 31 30 56
4 4 55 17
56 48 27 23
61 37 39 43
41 50 6 58
23 38 13 31
47 39 46 48
24 47 40 22
31 46 5 10
3 48 17 13
44 8 47 49
48 44 49 9
31 50 15 1
20 63 46 35
41 15 58 42
59 24 63 59
42 60 51 10
6 30 12 59
28 45 16 11
44 6 40 15
10 53 62 49
2 31 34 53
48 50 24 49
17 1 23 16
10 52 24 53
7 22 11 39
2 42 49 39
46 32 10 16
48 41 8 16
53 44 33 12
64 58 19 27
23 26 47 45
38 24 34 7
35 24 53 62
46 43 9 12
8 7 27 27
15 15 28 34
21 61 37 29
27 52 52 15
29 40 32 3
2 21 41 27
34 6 51 1
56 3 19 61
11 22 9 50
26 58 30 18
43 59 53 39
12 54 37 19
